# vtk DataFile Version 3.0
Model Data
ASCII
DATASET UNSTRUCTURED_GRID
POINTS 60 float
0.000000 0.000000 0.000000
0.250000 0.000000 0.000000
0.250000 0.250000 0.000000
0.000000 0.250000 0.000000
0.000000 0.000000 3.000000
0.250000 0.000000 3.000000
0.250000 0.250000 3.000000
0.000000 0.250000 3.000000
0.000000 0.000000 0.272727
0.000000 0.000000 0.545455
0.000000 0.000000 0.818182
0.000000 0.000000 1.090909
0.000000 0.000000 1.363636
0.000000 0.000000 1.636364
0.000000 0.000000 1.909091
0.000000 0.000000 2.181818
0.000000 0.000000 2.454545
0.000000 0.000000 2.727273
0.250000 0.000000 0.272727
0.250000 0.000000 0.545455
0.250000 0.000000 0.818182
0.250000 0.000000 1.090909
0.250000 0.000000 1.363636
0.250000 0.000000 1.636364
0.250000 0.000000 1.909091
0.250000 0.000000 2.181818
0.250000 0.000000 2.454545
0.250000 0.000000 2.727273
0.250000 0.250000 0.272727
0.250000 0.250000 0.545455
0.250000 0.250000 0.818182
0.250000 0.250000 1.090909
0.250000 0.250000 1.363636
0.250000 0.250000 1.636364
0.250000 0.250000 1.909091
0.250000 0.250000 2.181818
0.250000 0.250000 2.454545
0.250000 0.250000 2.727273
0.000000 0.250000 0.272727
0.000000 0.250000 0.545455
0.000000 0.250000 0.818182
0.000000 0.250000 1.090909
0.000000 0.250000 1.363636
0.000000 0.250000 1.636364
0.000000 0.250000 1.909091
0.000000 0.250000 2.181818
0.000000 0.250000 2.454545
0.000000 0.250000 2.727273
0.166667 0.083333 1.500000
0.093750 0.109375 0.153409
0.166600 0.083655 0.953641
0.140625 0.093750 2.062500
0.083333 0.166667 2.590909
0.093750 0.140625 2.301136
0.140625 0.156250 2.846591
0.083333 0.166667 1.772727
0.118744 0.147866 0.846716
0.166667 0.083333 1.227273
0.114527 0.100562 0.393397
0.125000 0.125000 0.542127
CELLS 138 690
4 11 20 10 50
4 21 20 11 50
4 34 43 33 55
4 44 43 34 55
4 31 21 22 57
4 31 22 32 57
4 13 22 12 48
4 23 22 13 48
4 47 16 46 52
4 17 16 47 52
4 21 30 20 50
4 31 30 21 50
4 46 36 37 52
4 37 47 46 52
4 32 22 23 48
4 33 32 23 48
4 12 21 11 57
4 22 21 12 57
4 44 13 43 55
4 14 13 44 55
4 31 30 50 56
4 40 30 31 56
4 46 45 36 53
4 36 45 35 53
4 6 37 5 54
4 27 5 37 54
4 38 39 8 58
4 9 8 39 58
4 25 34 24 51
4 35 34 25 51
4 8 1 0 49
4 18 1 8 49
4 22 12 32 57
4 37 17 47 52
4 12 22 32 48
4 13 33 43 55
4 40 56 10 59
4 30 56 40 59
4 10 56 20 59
4 20 56 30 59
4 11 31 21 50
4 28 58 19 59
4 38 3 28 49
4 15 14 45 51
4 19 28 18 58
4 25 15 16 53
4 47 7 17 54
4 30 20 50 56
4 31 11 21 57
4 16 36 46 52
4 23 13 33 48
4 14 44 34 55
4 36 16 46 53
4 7 6 5 54
4 3 0 1 49
4 24 34 14 51
4 8 28 38 58
4 28 8 18 58
4 25 45 15 53
4 45 25 35 53
4 17 37 47 54
4 17 27 37 54
4 8 28 18 49
4 28 8 38 49
4 45 25 15 51
4 25 45 35 51
4 20 10 50 56
4 38 58 28 59
4 39 40 9 59
4 10 20 19 59
4 40 10 9 59
4 10 19 9 59
4 40 39 30 59
4 30 29 20 59
4 30 39 29 59
4 20 29 19 59
4 28 29 38 59
4 29 39 38 59
4 28 19 29 59
4 39 58 38 59
4 39 9 58 59
4 19 58 9 59
4 7 47 6 54
4 6 47 37 54
4 46 15 45 53
4 16 15 46 53
4 8 0 38 49
4 38 0 3 49
4 25 24 15 51
4 9 18 8 58
4 19 18 9 58
4 14 15 24 51
4 16 52 26 36
4 26 52 16 17
4 52 27 26 36
4 26 27 52 17
4 52 37 27 36
4 27 37 52 17
4 13 48 43 33
4 43 48 13 12
4 48 42 43 33
4 43 42 48 12
4 48 32 42 33
4 42 32 48 12
4 41 50 11 10
4 41 11 50 31
4 40 56 41 10
4 40 41 56 31
4 56 50 41 10
4 56 41 50 31
4 53 25 26 16
4 26 25 53 35
4 26 36 53 16
4 53 36 26 35
4 17 54 4 27
4 17 4 54 7
4 5 4 54 27
4 5 54 4 7
4 31 57 41 11
4 41 57 31 32
4 57 42 41 11
4 41 42 57 32
4 57 12 42 11
4 42 12 57 32
4 28 49 2 18
4 28 2 49 3
4 1 2 49 18
4 1 49 2 3
4 34 55 24 14
4 24 55 34 33
4 55 23 24 14
4 24 23 55 33
4 55 13 23 14
4 23 13 55 33
4 45 51 44 35
4 45 44 51 14
4 34 44 51 35
4 34 51 44 14
CELL_TYPES 138
10
10
10
10
10
10
10
10
10
10
10
10
10
10
10
10
10
10
10
10
10
10
10
10
10
10
10
10
10
10
10
10
10
10
10
10
10
10
10
10
10
10
10
10
10
10
10
10
10
10
10
10
10
10
10
10
10
10
10
10
10
10
10
10
10
10
10
10
10
10
10
10
10
10
10
10
10
10
10
10
10
10
10
10
10
10
10
10
10
10
10
10
10
10
10
10
10
10
10
10
10
10
10
10
10
10
10
10
10
10
10
10
10
10
10
10
10
10
10
10
10
10
10
10
10
10
10
10
10
10
10
10
10
10
10
10
10
10
POINT_DATA 60
VECTORS Displacement float
0.000000 0.000000 0.000000
0.000000 0.000000 0.000000
0.000000 0.000000 0.000000
0.000000 0.000000 0.000000
-0.119882 -0.002314 -0.007375
-0.119952 -0.002263 0.007616
-0.120000 -0.002250 0.007414
-0.119935 -0.002301 -0.007578
-0.001834 -0.000422 -0.001303
-0.006131 -0.000899 -0.002523
-0.012562 -0.001205 -0.003370
-0.021017 -0.001627 -0.004251
-0.031321 -0.001981 -0.005112
-0.043370 -0.002333 -0.005860
-0.056937 -0.002471 -0.006373
-0.071612 -0.002627 -0.006845
-0.087273 -0.002587 -0.007150
-0.103464 -0.002478 -0.007325
-0.001740 -0.000512 0.001326
-0.006148 -0.000955 0.002436
-0.012601 -0.001430 0.003320
-0.020986 -0.001671 0.004354
-0.031278 -0.001860 0.005181
-0.043322 -0.002066 0.005896
-0.056903 -0.002338 0.006406
-0.071646 -0.002458 0.006946
-0.087266 -0.002509 0.007298
-0.103467 -0.002435 0.007501
-0.001579 -0.000586 0.001425
-0.005966 -0.001140 0.002481
-0.012393 -0.001474 0.003340
-0.020949 -0.001729 0.004223
-0.031410 -0.001934 0.005085
-0.043533 -0.002104 0.005801
-0.057042 -0.002379 0.006445
-0.071730 -0.002494 0.006893
-0.087340 -0.002501 0.007186
-0.103496 -0.002435 0.007369
-0.001579 -0.000359 -0.001482
-0.005945 -0.000669 -0.002338
-0.012410 -0.001190 -0.003277
-0.020851 -0.001622 -0.004211
-0.031332 -0.001968 -0.005041
-0.043504 -0.002282 -0.005745
-0.057011 -0.002440 -0.006460
-0.071780 -0.002590 -0.006938
-0.087355 -0.002578 -0.007301
-0.103501 -0.002470 -0.007515
-0.037248 -0.002056 0.001803
-0.000703 -0.000270 -0.000187
-0.016581 -0.001532 0.001271
-0.065166 -0.002480 0.000844
-0.095370 -0.002512 -0.002449
-0.078472 -0.002552 -0.001754
-0.110679 -0.002378 0.000923
-0.050131 -0.002345 -0.002013
-0.013253 -0.001353 -0.000113
-0.026005 -0.001813 0.001541
-0.003508 -0.000690 -0.000104
-0.005885 -0.000884 0.000006
CELL_DATA 138
SCALARS Stress float
LOOKUP_TABLE default
-27872322.890031
-18751820.928434
-79531681.792699
13227154.006293
49293620.261061
-35664067.425216
-27872322.890031
-18751820.928434
-79531681.792699
13227154.006293
49293620.261061
-35664067.425216
-27872322.890031
-18751820.928434
-79531681.792699
13227154.006293
49293620.261061
-35664067.425216
-27872322.890031
-18751820.928434
-79531681.792699
13227154.006293
49293620.261061
-35664067.425216
35257565.013259
33730912.433379
96850741.459465
18143795.381852
23492366.490079
30858841.760905
35257565.013259
33730912.433379
96850741.459465
18143795.381852
23492366.490079
30858841.760905
35257565.013259
33730912.433379
96850741.459465
18143795.381852
23492366.490079
30858841.760905
35257565.013259
33730912.433379
96850741.459465
18143795.381852
23492366.490079
30858841.760905
15393917.147847
14258203.758944
56935854.163133
-7890767.915665
35700434.373389
-28115367.716247
15393917.147847
14258203.758944
56935854.163133
-7890767.915665
35700434.373389
-28115367.716247
15393917.147847
14258203.758944
56935854.163133
-7890767.915665
35700434.373389
-28115367.716247
15393917.147847
14258203.758944
56935854.163133
-7890767.915665
35700434.373389
-28115367.716247
-24696665.992868
-21752352.761396
-66684354.372216
-11787902.659246
16485627.457631
17593113.854789
-24696665.992868
-21752352.761396
-66684354.372216
-11787902.659246
16485627.457631
17593113.854789
-24696665.992868
-21752352.761396
-66684354.372216
-11787902.659246
16485627.457631
17593113.854789
-24696665.992868
-21752352.761396
-66684354.372216
-11787902.659246
16485627.457631
17593113.854789
-11035463.342110
8141864.082337
62995101.205841
4154358.601714
-10211103.264075
3830186.186983
-11035463.342110
8141864.082337
62995101.205841
4154358.601714
-10211103.264075
3830186.186983
-11035463.342110
8141864.082337
62995101.205841
4154358.601714
-10211103.264075
3830186.186983
-11035463.342110
8141864.082337
62995101.205841
4154358.601714
-10211103.264075
3830186.186983
-1993664.275156
10402730.971032
68444254.787752
-1264702.303024
-9565661.696518
-1959359.893116
-1993664.275156
10402730.971032
68444254.787752
-1264702.303024
-9565661.696518
-1959359.893116
-1993664.275156
10402730.971032
68444254.787752
-1264702.303024
-9565661.696518
-1959359.893116
-1993664.275156
10402730.971032
68444254.787752
-1264702.303024
-9565661.696518
-1959359.893116
-16708174.964329
-15497169.835714
-65710393.762113
11048120.134781
32156796.852123
-25281635.437704
-16708174.964329
-15497169.835714
-65710393.762113
11048120.134781
32156796.852123
-25281635.437704
-16708174.964329
-15497169.835714
-65710393.762113
11048120.134781
32156796.852123
-25281635.437704
-16708174.964329
-15497169.835714
-65710393.762113
11048120.134781
32156796.852123
-25281635.437704
26423278.951368
22386904.381050
67200061.964078
15862678.403756
12069876.449015
24036297.910266
26423278.951368
22386904.381050
67200061.964078
15862678.403756
12069876.449015
24036297.910266
26423278.951368
22386904.381050
67200061.964078
15862678.403756
12069876.449015
24036297.910266
26423278.951368
22386904.381050
67200061.964078
15862678.403756
12069876.449015
24036297.910266
2899858.487080
-2616167.639931
-16437299.181860
-1226389.267644
-1740728.762323
-2470879.265252
2899858.487080
-2616167.639931
-16437299.181860
-1226389.267644
-1740728.762323
-2470879.265252
2899858.487080
-2616167.639931
-16437299.181860
-1226389.267644
-1740728.762323
-2470879.265252
2899858.487080
-2616167.639931
-16437299.181860
-1226389.267644
-1740728.762323
-2470879.265252
1800330.500412
-2332233.833120
-13626020.117756
301076.488380
-3003641.175169
-3186798.548912
1800330.500412
-2332233.833120
-13626020.117756
301076.488380
-3003641.175169
-3186798.548912
1800330.500412
-2332233.833120
-13626020.117756
301076.488380
-3003641.175169
-3186798.548912
1800330.500412
-2332233.833120
-13626020.117756
301076.488380
-3003641.175169
-3186798.548912
-4451025.916631
15758748.145605
82430552.655048
3756695.244854
-6746471.251729
527613.371508
-4451025.916631
15758748.145605
82430552.655048
3756695.244854
-6746471.251729
527613.371508
-4451025.916631
15758748.145605
82430552.655048
3756695.244854
-6746471.251729
527613.371508
-4451025.916631
15758748.145605
82430552.655048
3756695.244854
-6746471.251729
527613.371508
-819558.558166
12688487.986135
70965692.037090
-1765229.259198
-12218243.134579
-2179486.111791
-819558.558166
12688487.986135
70965692.037090
-1765229.259198
-12218243.134579
-2179486.111791
-819558.558166
12688487.986135
70965692.037090
-1765229.259198
-12218243.134579
-2179486.111791
-819558.558166
12688487.986135
70965692.037090
-1765229.259198
-12218243.134579
-2179486.111791
6396337.304752
3969599.887312
16676306.098195
-3210952.690306
8928446.725975
-10840223.632617
6396337.304752
3969599.887312
16676306.098195
-3210952.690306
8928446.725975
-10840223.632617
6396337.304752
3969599.887312
16676306.098195
-3210952.690306
8928446.725975
-10840223.632617
6396337.304752
3969599.887312
16676306.098195
-3210952.690306
8928446.725975
-10840223.632617
-6107775.408087
-6493189.231289
-19658463.053491
-4447553.139277
3534683.817297
2804533.314367
-6107775.408087
-6493189.231289
-19658463.053491
-4447553.139277
3534683.817297
2804533.314367
-6107775.408087
-6493189.231289
-19658463.053491
-4447553.139277
3534683.817297
2804533.314367
-6107775.408087
-6493189.231289
-19658463.053491
-4447553.139277
3534683.817297
2804533.314367
-9652751.499937
4824509.367356
53790455.597828
2453072.037506
-9595936.632848
2370484.828403
-9652751.499937
4824509.367356
53790455.597828
2453072.037506
-9595936.632848
2370484.828403
-9652751.499937
4824509.367356
53790455.597828
2453072.037506
-9595936.632848
2370484.828403
-9652751.499937
4824509.367356
53790455.597828
2453072.037506
-9595936.632848
2370484.828403
-4419752.369354
9838255.483429
56527583.454829
-787395.346180
-8411601.720123
-84332.460973
-4419752.369354
9838255.483429
56527583.454829
-787395.346180
-8411601.720123
-84332.460973
-4419752.369354
9838255.483429
56527583.454829
-787395.346180
-8411601.720123
-84332.460973
-4419752.369354
9838255.483429
56527583.454829
-787395.346180
-8411601.720123
-84332.460973
-21374933.896874
-19483744.868515
-76464596.879176
12952954.245142
38103183.191361
-28217881.201136
-21374933.896874
-19483744.868515
-76464596.879176
12952954.245142
38103183.191361
-28217881.201136
-21374933.896874
-19483744.868515
-76464596.879176
12952954.245142
38103183.191361
-28217881.201136
-21374933.896874
-19483744.868515
-76464596.879176
12952954.245142
38103183.191361
-28217881.201136
29026061.741020
24603493.414023
77125889.809545
18285147.205418
14814232.238044
28855521.689101
29026061.741020
24603493.414023
77125889.809545
18285147.205418
14814232.238044
28855521.689101
29026061.741020
24603493.414023
77125889.809545
18285147.205418
14814232.238044
28855521.689101
29026061.741020
24603493.414023
77125889.809545
18285147.205418
14814232.238044
28855521.689101
4540800.527807
-8560845.587426
-56077110.948554
-1180659.235586
-989856.550559
117629.846599
4540800.527807
-8560845.587426
-56077110.948554
-1180659.235586
-989856.550559
117629.846599
4540800.527807
-8560845.587426
-56077110.948554
-1180659.235586
-989856.550559
117629.846599
4540800.527807
-8560845.587426
-56077110.948554
-1180659.235586
-989856.550559
117629.846599
7071563.375219
-5372548.563107
-39060287.665169
1175474.449703
-7168662.177591
1670063.268346
7071563.375219
-5372548.563107
-39060287.665169
1175474.449703
-7168662.177591
1670063.268346
7071563.375219
-5372548.563107
-39060287.665169
1175474.449703
-7168662.177591
1670063.268346
7071563.375219
-5372548.563107
-39060287.665169
1175474.449703
-7168662.177591
1670063.268346
30257568.141806
33794944.130828
84011587.748257
-14323955.335962
13268099.434516
-53013351.334933
30257568.141806
33794944.130828
84011587.748257
-14323955.335962
13268099.434516
-53013351.334933
30257568.141806
33794944.130828
84011587.748257
-14323955.335962
13268099.434516
-53013351.334933
30257568.141806
33794944.130828
84011587.748257
-14323955.335962
13268099.434516
-53013351.334933
29109634.813395
28260300.323405
82340943.464298
-13156493.351786
-1922333.271334
-41193275.350954
29109634.813395
28260300.323405
82340943.464298
-13156493.351786
-1922333.271334
-41193275.350954
29109634.813395
28260300.323405
82340943.464298
-13156493.351786
-1922333.271334
-41193275.350954
29109634.813395
28260300.323405
82340943.464298
-13156493.351786
-1922333.271334
-41193275.350954
-9964516.885302
-11514273.243851
-33283237.530851
-6334686.947890
7282662.834586
7051910.387800
-9964516.885302
-11514273.243851
-33283237.530851
-6334686.947890
7282662.834586
7051910.387800
-9964516.885302
-11514273.243851
-33283237.530851
-6334686.947890
7282662.834586
7051910.387800
-9964516.885302
-11514273.243851
-33283237.530851
-6334686.947890
7282662.834586
7051910.387800
13676990.894697
9599880.341972
28434247.930007
-5870655.892072
9853469.317840
-16072572.816558
13676990.894697
9599880.341972
28434247.930007
-5870655.892072
9853469.317840
-16072572.816558
13676990.894697
9599880.341972
28434247.930007
-5870655.892072
9853469.317840
-16072572.816558
13676990.894697
9599880.341972
28434247.930007
-5870655.892072
9853469.317840
-16072572.816558
-2779125.962227
1164619.061520
3055779.275141
-169692.560621
-1106437.975838
-5951267.165140
-2779125.962227
1164619.061520
3055779.275141
-169692.560621
-1106437.975838
-5951267.165140
-2779125.962227
1164619.061520
3055779.275141
-169692.560621
-1106437.975838
-5951267.165140
-2779125.962227
1164619.061520
3055779.275141
-169692.560621
-1106437.975838
-5951267.165140
-763935.744888
2142449.141900
9236496.925368
400648.242987
871337.289770
-5033700.050067
-763935.744888
2142449.141900
9236496.925368
400648.242987
871337.289770
-5033700.050067
-763935.744888
2142449.141900
9236496.925368
400648.242987
871337.289770
-5033700.050067
-763935.744888
2142449.141900
9236496.925368
400648.242987
871337.289770
-5033700.050067
10017319.558494
-8616403.190678
-65550427.482988
-2864463.628927
-15561682.419914
-13433345.830853
10017319.558494
-8616403.190678
-65550427.482988
-2864463.628927
-15561682.419914
-13433345.830853
10017319.558494
-8616403.190678
-65550427.482988
-2864463.628927
-15561682.419914
-13433345.830853
10017319.558494
-8616403.190678
-65550427.482988
-2864463.628927
-15561682.419914
-13433345.830853
3820864.973759
-3169571.065105
-93744314.067533
-4694346.716566
-8490292.262174
-10231390.380621
3820864.973759
-3169571.065105
-93744314.067533
-4694346.716566
-8490292.262174
-10231390.380621
3820864.973759
-3169571.065105
-93744314.067533
-4694346.716566
-8490292.262174
-10231390.380621
3820864.973759
-3169571.065105
-93744314.067533
-4694346.716566
-8490292.262174
-10231390.380621
-3656337.553005
6125098.924608
42200439.049467
-145969.098149
-2398722.646392
-2455211.526819
-3656337.553005
6125098.924608
42200439.049467
-145969.098149
-2398722.646392
-2455211.526819
-3656337.553005
6125098.924608
42200439.049467
-145969.098149
-2398722.646392
-2455211.526819
-3656337.553005
6125098.924608
42200439.049467
-145969.098149
-2398722.646392
-2455211.526819
-7072427.345179
3634886.630652
33631849.505438
1649009.173897
-5307901.909703
-341212.664205
-7072427.345179
3634886.630652
33631849.505438
1649009.173897
-5307901.909703
-341212.664205
-7072427.345179
3634886.630652
33631849.505438
1649009.173897
-5307901.909703
-341212.664205
-7072427.345179
3634886.630652
33631849.505438
1649009.173897
-5307901.909703
-341212.664205
-42633550.158084
-47630394.061830
-122903806.570506
25274312.037730
28932622.910004
-56501438.612679
-42633550.158084
-47630394.061830
-122903806.570506
25274312.037730
28932622.910004
-56501438.612679
-42633550.158084
-47630394.061830
-122903806.570506
25274312.037730
28932622.910004
-56501438.612679
-42633550.158084
-47630394.061830
-122903806.570506
25274312.037730
28932622.910004
-56501438.612679
47460430.157806
35235877.063307
122813189.579112
22686368.433528
38765947.597648
34766458.892506
47460430.157806
35235877.063307
122813189.579112
22686368.433528
38765947.597648
34766458.892506
47460430.157806
35235877.063307
122813189.579112
22686368.433528
38765947.597648
34766458.892506
47460430.157806
35235877.063307
122813189.579112
22686368.433528
38765947.597648
34766458.892506
12722228.841070
4879322.767275
31634728.856496
-371656.193737
-10111412.096640
17454141.834021
12722228.841070
4879322.767275
31634728.856496
-371656.193737
-10111412.096640
17454141.834021
12722228.841070
4879322.767275
31634728.856496
-371656.193737
-10111412.096640
17454141.834021
12722228.841070
4879322.767275
31634728.856496
-371656.193737
-10111412.096640
17454141.834021
-1809537.527736
-1654296.801249
-7304403.962125
-55653.163995
-3221642.629397
120594.440595
-1809537.527736
-1654296.801249
-7304403.962125
-55653.163995
-3221642.629397
120594.440595
-1809537.527736
-1654296.801249
-7304403.962125
-55653.163995
-3221642.629397
120594.440595
-1809537.527736
-1654296.801249
-7304403.962125
-55653.163995
-3221642.629397
120594.440595
7025965.032456
-816941.041339
14545937.430654
-371656.193737
-11322159.440829
-18302883.236943
7025965.032456
-816941.041339
14545937.430654
-371656.193737
-11322159.440829
-18302883.236943
7025965.032456
-816941.041339
14545937.430654
-371656.193737
-11322159.440829
-18302883.236943
7025965.032456
-816941.041339
14545937.430654
-371656.193737
-11322159.440829
-18302883.236943
-5972546.682948
-590283.202602
-13681514.198501
1460922.008201
-2604156.199533
-22400446.096129
-5972546.682948
-590283.202602
-13681514.198501
1460922.008201
-2604156.199533
-22400446.096129
-5972546.682948
-590283.202602
-13681514.198501
1460922.008201
-2604156.199533
-22400446.096129
-5972546.682948
-590283.202602
-13681514.198501
1460922.008201
-2604156.199533
-22400446.096129
-17275977.195807
-3604229.854114
-2419085.864439
-2867329.186119
-10024005.068841
22477445.800867
-17275977.195807
-3604229.854114
-2419085.864439
-2867329.186119
-10024005.068841
22477445.800867
-17275977.195807
-3604229.854114
-2419085.864439
-2867329.186119
-10024005.068841
22477445.800867
-17275977.195807
-3604229.854114
-2419085.864439
-2867329.186119
-10024005.068841
22477445.800867
1831221.968834
-1921167.353396
3408759.762853
3428778.438299
-14333412.851147
18170305.214358
1831221.968834
-1921167.353396
3408759.762853
3428778.438299
-14333412.851147
18170305.214358
1831221.968834
-1921167.353396
3408759.762853
3428778.438299
-14333412.851147
18170305.214358
1831221.968834
-1921167.353396
3408759.762853
3428778.438299
-14333412.851147
18170305.214358
-2784021.122169
205866.376900
1863837.973417
-6519834.069229
-8820051.339614
21459468.246794
-2784021.122169
205866.376900
1863837.973417
-6519834.069229
-8820051.339614
21459468.246794
-2784021.122169
205866.376900
1863837.973417
-6519834.069229
-8820051.339614
21459468.246794
-2784021.122169
205866.376900
1863837.973417
-6519834.069229
-8820051.339614
21459468.246794
15769931.056426
2065471.385674
7436488.642269
-2392472.656907
-12331142.712722
17134386.172105
15769931.056426
2065471.385674
7436488.642269
-2392472.656907
-12331142.712722
17134386.172105
15769931.056426
2065471.385674
7436488.642269
-2392472.656907
-12331142.712722
17134386.172105
15769931.056426
2065471.385674
7436488.642269
-2392472.656907
-12331142.712722
17134386.172105
11522285.021327
5554127.482411
30086406.442701
-208726.873588
-13163927.502849
19674328.629332
11522285.021327
5554127.482411
30086406.442701
-208726.873588
-13163927.502849
19674328.629332
11522285.021327
5554127.482411
30086406.442701
-208726.873588
-13163927.502849
19674328.629332
11522285.021327
5554127.482411
30086406.442701
-208726.873588
-13163927.502849
19674328.629332
-20152513.338869
-3768428.967542
-683553.128058
2611057.568426
-42458788.909645
-3196022.610585
-20152513.338869
-3768428.967542
-683553.128058
2611057.568426
-42458788.909645
-3196022.610585
-20152513.338869
-3768428.967542
-683553.128058
2611057.568426
-42458788.909645
-3196022.610585
-20152513.338869
-3768428.967542
-683553.128058
2611057.568426
-42458788.909645
-3196022.610585
-46732212.292638
-48784489.146729
-138010095.450794
-18716322.779240
15430624.521734
49051707.231355
-46732212.292638
-48784489.146729
-138010095.450794
-18716322.779240
15430624.521734
49051707.231355
-46732212.292638
-48784489.146729
-138010095.450794
-18716322.779240
15430624.521734
49051707.231355
-46732212.292638
-48784489.146729
-138010095.450794
-18716322.779240
15430624.521734
49051707.231355
2610236.002867
-5437481.042630
-37035148.324039
-1760854.149715
-7954189.561167
-2960477.976408
2610236.002867
-5437481.042630
-37035148.324039
-1760854.149715
-7954189.561167
-2960477.976408
2610236.002867
-5437481.042630
-37035148.324039
-1760854.149715
-7954189.561167
-2960477.976408
2610236.002867
-5437481.042630
-37035148.324039
-1760854.149715
-7954189.561167
-2960477.976408
9751163.417466
19398285.509719
92696211.818000
2417861.339466
-10307272.521710
-14195848.871201
9751163.417466
19398285.509719
92696211.818000
2417861.339466
-10307272.521710
-14195848.871201
9751163.417466
19398285.509719
92696211.818000
2417861.339466
-10307272.521710
-14195848.871201
9751163.417466
19398285.509719
92696211.818000
2417861.339466
-10307272.521710
-14195848.871201
-13215772.364647
-11587645.165916
-29710425.831090
5948333.898380
4383021.654878
-19000781.282208
-13215772.364647
-11587645.165916
-29710425.831090
5948333.898380
4383021.654878
-19000781.282208
-13215772.364647
-11587645.165916
-29710425.831090
5948333.898380
4383021.654878
-19000781.282208
-13215772.364647
-11587645.165916
-29710425.831090
5948333.898380
4383021.654878
-19000781.282208
-1918020.811062
-1256503.634395
-5604748.011387
10264.884506
-1146263.331690
-4720816.692700
-1918020.811062
-1256503.634395
-5604748.011387
10264.884506
-1146263.331690
-4720816.692700
-1918020.811062
-1256503.634395
-5604748.011387
10264.884506
-1146263.331690
-4720816.692700
-1918020.811062
-1256503.634395
-5604748.011387
10264.884506
-1146263.331690
-4720816.692700
-9163512.767153
-679050.280728
21391845.800240
-1941003.797970
-10254435.979441
-32083657.704505
-9163512.767153
-679050.280728
21391845.800240
-1941003.797970
-10254435.979441
-32083657.704505
-9163512.767153
-679050.280728
21391845.800240
-1941003.797970
-10254435.979441
-32083657.704505
-9163512.767153
-679050.280728
21391845.800240
-1941003.797970
-10254435.979441
-32083657.704505
7317777.165320
1349619.626404
17472882.874680
-208726.873588
-12877433.276769
-20174631.628551
7317777.165320
1349619.626404
17472882.874680
-208726.873588
-12877433.276769
-20174631.628551
7317777.165320
1349619.626404
17472882.874680
-208726.873588
-12877433.276769
-20174631.628551
7317777.165320
1349619.626404
17472882.874680
-208726.873588
-12877433.276769
-20174631.628551
120102.968029
-253231.651658
-4205799.709725
-156773.049486
-2394383.117862
-8973780.518789
120102.968029
-253231.651658
-4205799.709725
-156773.049486
-2394383.117862
-8973780.518789
120102.968029
-253231.651658
-4205799.709725
-156773.049486
-2394383.117862
-8973780.518789
120102.968029
-253231.651658
-4205799.709725
-156773.049486
-2394383.117862
-8973780.518789
12361935.681826
6589743.959405
26751849.307553
1893241.851378
-10049768.896409
15499420.017147
12361935.681826
6589743.959405
26751849.307553
1893241.851378
-10049768.896409
15499420.017147
12361935.681826
6589743.959405
26751849.307553
1893241.851378
-10049768.896409
15499420.017147
12361935.681826
6589743.959405
26751849.307553
1893241.851378
-10049768.896409
15499420.017147
-9247962.587537
-5078265.212460
-21563628.299826
-456377.327128
-8165904.930095
10668292.818520
-9247962.587537
-5078265.212460
-21563628.299826
-456377.327128
-8165904.930095
10668292.818520
-9247962.587537
-5078265.212460
-21563628.299826
-456377.327128
-8165904.930095
10668292.818520
-9247962.587537
-5078265.212460
-21563628.299826
-456377.327128
-8165904.930095
10668292.818520
-835334.487131
-1208669.106817
-7072112.075203
-156773.049486
-5116254.211642
2647286.589881
-835334.487131
-1208669.106817
-7072112.075203
-156773.049486
-5116254.211642
2647286.589881
-835334.487131
-1208669.106817
-7072112.075203
-156773.049486
-5116254.211642
2647286.589881
-835334.487131
-1208669.106817
-7072112.075203
-156773.049486
-5116254.211642
2647286.589881
-5667112.605260
-442312.030116
-483958.448364
76636.528735
-1282061.493249
-4139119.803523
-5667112.605260
-442312.030116
-483958.448364
76636.528735
-1282061.493249
-4139119.803523
-5667112.605260
-442312.030116
-483958.448364
76636.528735
-1282061.493249
-4139119.803523
-5667112.605260
-442312.030116
-483958.448364
76636.528735
-1282061.493249
-4139119.803523
-10242716.682011
-10242716.682011
-30728150.046034
0.000000
-14775678.168582
-38481790.215333
-10242716.682011
-10242716.682011
-30728150.046034
0.000000
-14775678.168582
-38481790.215333
-10242716.682011
-10242716.682011
-30728150.046034
0.000000
-14775678.168582
-38481790.215333
-10242716.682011
-10242716.682011
-30728150.046034
0.000000
-14775678.168582
-38481790.215333
2775132.923624
-2309362.365498
2031123.412408
-175026.492117
-2419439.492092
-19411394.286536
2775132.923624
-2309362.365498
2031123.412408
-175026.492117
-2419439.492092
-19411394.286536
2775132.923624
-2309362.365498
2031123.412408
-175026.492117
-2419439.492092
-19411394.286536
2775132.923624
-2309362.365498
2031123.412408
-175026.492117
-2419439.492092
-19411394.286536
-2131844.883952
2108507.063011
-10501622.025789
950426.443864
-19182372.542945
-25929149.358391
-2131844.883952
2108507.063011
-10501622.025789
950426.443864
-19182372.542945
-25929149.358391
-2131844.883952
2108507.063011
-10501622.025789
950426.443864
-19182372.542945
-25929149.358391
-2131844.883952
2108507.063011
-10501622.025789
950426.443864
-19182372.542945
-25929149.358391
3933813.605273
-7395563.831806
-8661835.735907
2349907.423518
-10383563.284819
-35628873.064254
3933813.605273
-7395563.831806
-8661835.735907
2349907.423518
-10383563.284819
-35628873.064254
3933813.605273
-7395563.831806
-8661835.735907
2349907.423518
-10383563.284819
-35628873.064254
3933813.605273
-7395563.831806
-8661835.735907
2349907.423518
-10383563.284819
-35628873.064254
-4206801.290180
641200.032266
-5903386.731404
42992.308839
-3792372.421165
-12040914.408847
-4206801.290180
641200.032266
-5903386.731404
42992.308839
-3792372.421165
-12040914.408847
-4206801.290180
641200.032266
-5903386.731404
42992.308839
-3792372.421165
-12040914.408847
-4206801.290180
641200.032266
-5903386.731404
42992.308839
-3792372.421165
-12040914.408847
1971402.117705
-3767340.071186
-5020886.764798
397391.306849
-2771500.531224
-10326862.884237
1971402.117705
-3767340.071186
-5020886.764798
397391.306849
-2771500.531224
-10326862.884237
1971402.117705
-3767340.071186
-5020886.764798
397391.306849
-2771500.531224
-10326862.884237
1971402.117705
-3767340.071186
-5020886.764798
397391.306849
-2771500.531224
-10326862.884237
412642.704912
567883.431400
-637863.264179
-55653.163995
-1068574.203100
-6352339.006814
412642.704912
567883.431400
-637863.264179
-55653.163995
-1068574.203100
-6352339.006814
412642.704912
567883.431400
-637863.264179
-55653.163995
-1068574.203100
-6352339.006814
412642.704912
567883.431400
-637863.264179
-55653.163995
-1068574.203100
-6352339.006814
-874869.625139
-671584.418657
-1908703.436610
448272.855552
914993.184620
-8339052.164057
-874869.625139
-671584.418657
-1908703.436610
448272.855552
914993.184620
-8339052.164057
-874869.625139
-671584.418657
-1908703.436610
448272.855552
914993.184620
-8339052.164057
-874869.625139
-671584.418657
-1908703.436610
448272.855552
914993.184620
-8339052.164057
940291.677381
-10389085.759697
-17642401.519582
2349907.423518
-12061283.169117
16124702.966585
940291.677381
-10389085.759697
-17642401.519582
2349907.423518
-12061283.169117
16124702.966585
940291.677381
-10389085.759697
-17642401.519582
2349907.423518
-12061283.169117
16124702.966585
940291.677381
-10389085.759697
-17642401.519582
2349907.423518
-12061283.169117
16124702.966585
-5267428.844736
-1027076.897773
-19908373.908140
950426.443864
-20790172.139743
25873038.504028
-5267428.844736
-1027076.897773
-19908373.908140
950426.443864
-20790172.139743
25873038.504028
-5267428.844736
-1027076.897773
-19908373.908140
950426.443864
-20790172.139743
25873038.504028
-5267428.844736
-1027076.897773
-19908373.908140
950426.443864
-20790172.139743
25873038.504028
179886.643372
5027887.965818
7256677.069250
42992.308839
-5828227.663593
3790877.274231
179886.643372
5027887.965818
7256677.069250
42992.308839
-5828227.663593
3790877.274231
179886.643372
5027887.965818
7256677.069250
42992.308839
-5828227.663593
3790877.274231
179886.643372
5027887.965818
7256677.069250
42992.308839
-5828227.663593
3790877.274231
6006022.738859
267280.549968
7082975.098663
397391.306849
-4160585.531579
4765339.771576
6006022.738859
267280.549968
7082975.098663
397391.306849
-4160585.531579
4765339.771576
6006022.738859
267280.549968
7082975.098663
397391.306849
-4160585.531579
4765339.771576
6006022.738859
267280.549968
7082975.098663
397391.306849
-4160585.531579
4765339.771576
5483600.044051
7596693.664663
27543495.350530
3323339.229740
-8228328.886800
-29547847.034882
5483600.044051
7596693.664663
27543495.350530
3323339.229740
-8228328.886800
-29547847.034882
5483600.044051
7596693.664663
27543495.350530
3323339.229740
-8228328.886800
-29547847.034882
5483600.044051
7596693.664663
27543495.350530
3323339.229740
-8228328.886800
-29547847.034882
3521755.744291
11135932.413298
3085355.136896
-7637948.010842
-13890234.342056
-36565080.294944
3521755.744291
11135932.413298
3085355.136896
-7637948.010842
-13890234.342056
-36565080.294944
3521755.744291
11135932.413298
3085355.136896
-7637948.010842
-13890234.342056
-36565080.294944
3521755.744291
11135932.413298
3085355.136896
-7637948.010842
-13890234.342056
-36565080.294944
-6189264.119907
-744908.496961
-74035534.701291
-915400.347667
-9832908.160178
-36179358.428146
-6189264.119907
-744908.496961
-74035534.701291
-915400.347667
-9832908.160178
-36179358.428146
-6189264.119907
-744908.496961
-74035534.701291
-915400.347667
-9832908.160178
-36179358.428146
-6189264.119907
-744908.496961
-74035534.701291
-915400.347667
-9832908.160178
-36179358.428146
20064513.830667
16285114.499093
77178729.662567
3517777.354836
47581810.974009
26004577.860771
20064513.830667
16285114.499093
77178729.662567
3517777.354836
47581810.974009
26004577.860771
20064513.830667
16285114.499093
77178729.662567
3517777.354836
47581810.974009
26004577.860771
20064513.830667
16285114.499093
77178729.662567
3517777.354836
47581810.974009
26004577.860771
-6983668.733146
-18311534.692386
-71540613.680187
5295866.751230
-6327645.569740
-31947873.620379
-6983668.733146
-18311534.692386
-71540613.680187
5295866.751230
-6327645.569740
-31947873.620379
-6983668.733146
-18311534.692386
-71540613.680187
5295866.751230
-6327645.569740
-31947873.620379
-6983668.733146
-18311534.692386
-71540613.680187
5295866.751230
-6327645.569740
-31947873.620379
-25144691.878881
-18856210.976874
-76217038.537743
9972291.608786
-6815132.489543
-31460386.700576
-25144691.878881
-18856210.976874
-76217038.537743
9972291.608786
-6815132.489543
-31460386.700576
-25144691.878881
-18856210.976874
-76217038.537743
9972291.608786
-6815132.489543
-31460386.700576
-25144691.878881
-18856210.976874
-76217038.537743
9972291.608786
-6815132.489543
-31460386.700576
-21826588.523576
-12308008.705770
-80835640.854411
-7715506.500786
49562975.591634
23216525.323667
-21826588.523576
-12308008.705770
-80835640.854411
-7715506.500786
49562975.591634
23216525.323667
-21826588.523576
-12308008.705770
-80835640.854411
-7715506.500786
49562975.591634
23216525.323667
-21826588.523576
-12308008.705770
-80835640.854411
-7715506.500786
49562975.591634
23216525.323667
3361379.252810
14779329.788676
70700474.057891
-8417073.790676
-9603155.806611
-32996315.440402
3361379.252810
14779329.788676
70700474.057891
-8417073.790676
-9603155.806611
-32996315.440402
3361379.252810
14779329.788676
70700474.057891
-8417073.790676
-9603155.806611
-32996315.440402
3361379.252810
14779329.788676
70700474.057891
-8417073.790676
-9603155.806611
-32996315.440402
23242830.926678
22501073.202645
77601272.829850
-15317872.562635
-6582669.575676
-36016801.671337
23242830.926678
22501073.202645
77601272.829850
-15317872.562635
-6582669.575676
-36016801.671337
23242830.926678
22501073.202645
77601272.829850
-15317872.562635
-6582669.575676
-36016801.671337
23242830.926678
22501073.202645
77601272.829850
-15317872.562635
-6582669.575676
-36016801.671337
2172589.708257
2249001.194708
69196720.305868
-4464232.001863
-13110345.541336
-34687578.654574
2172589.708257
2249001.194708
69196720.305868
-4464232.001863
-13110345.541336
-34687578.654574
2172589.708257
2249001.194708
69196720.305868
-4464232.001863
-13110345.541336
-34687578.654574
2172589.708257
2249001.194708
69196720.305868
-4464232.001863
-13110345.541336
-34687578.654574
23380433.212909
5203474.530246
88452522.894421
-9491985.298445
50718044.136398
-37425344.875057
23380433.212909
5203474.530246
88452522.894421
-9491985.298445
50718044.136398
-37425344.875057
23380433.212909
5203474.530246
88452522.894421
-9491985.298445
50718044.136398
-37425344.875057
23380433.212909
5203474.530246
88452522.894421
-9491985.298445
50718044.136398
-37425344.875057
-29603283.394285
-30384507.062275
-80897604.189082
-17007657.992672
-4435049.699068
27451894.781799
-29603283.394285
-30384507.062275
-80897604.189082
-17007657.992672
-4435049.699068
27451894.781799
-29603283.394285
-30384507.062275
-80897604.189082
-17007657.992672
-4435049.699068
27451894.781799
-29603283.394285
-30384507.062275
-80897604.189082
-17007657.992672
-4435049.699068
27451894.781799
2374232.215340
5840274.931337
83360172.745302
-4399635.149326
-15536616.920327
28829316.181668
2374232.215340
5840274.931337
83360172.745302
-4399635.149326
-15536616.920327
28829316.181668
2374232.215340
5840274.931337
83360172.745302
-4399635.149326
-15536616.920327
28829316.181668
2374232.215340
5840274.931337
83360172.745302
-4399635.149326
-15536616.920327
28829316.181668
-24353219.533407
-30333869.649030
-79572428.870552
-15682482.674142
82060710.395755
113947654.876621
-24353219.533407
-30333869.649030
-79572428.870552
-15682482.674142
82060710.395755
113947654.876621
-24353219.533407
-30333869.649030
-79572428.870552
-15682482.674142
82060710.395755
113947654.876621
-24353219.533407
-30333869.649030
-79572428.870552
-15682482.674142
82060710.395755
113947654.876621
21441981.700776
23511763.905045
-4640090.913951
-801595.186276
-5558362.342275
27796371.044946
21441981.700776
23511763.905045
-4640090.913951
-801595.186276
-5558362.342275
27796371.044946
21441981.700776
23511763.905045
-4640090.913951
-801595.186276
-5558362.342275
27796371.044946
21441981.700776
23511763.905045
-4640090.913951
-801595.186276
-5558362.342275
27796371.044946
-5172808.782567
1017855.678412
-16203572.807771
11613221.988124
-8119103.621995
30173303.764291
-5172808.782567
1017855.678412
-16203572.807771
11613221.988124
-8119103.621995
30173303.764291
-5172808.782567
1017855.678412
-16203572.807771
11613221.988124
-8119103.621995
30173303.764291
-5172808.782567
1017855.678412
-16203572.807771
11613221.988124
-8119103.621995
30173303.764291
-7546505.246923
-1396878.266703
-7046962.778431
-2695490.655531
2267398.587647
-2445042.079809
-7546505.246923
-1396878.266703
-7046962.778431
-2695490.655531
2267398.587647
-2445042.079809
-7546505.246923
-1396878.266703
-7046962.778431
-2695490.655531
2267398.587647
-2445042.079809
-7546505.246923
-1396878.266703
-7046962.778431
-2695490.655531
2267398.587647
-2445042.079809
2633901.505016
3757739.192854
5057316.174785
-2413264.395779
1522622.801907
-8204747.831779
2633901.505016
3757739.192854
5057316.174785
-2413264.395779
1522622.801907
-8204747.831779
2633901.505016
3757739.192854
5057316.174785
-2413264.395779
1522622.801907
-8204747.831779
2633901.505016
3757739.192854
5057316.174785
-2413264.395779
1522622.801907
-8204747.831779
3051762.559307
-3046359.639674
-27912189.268655
-1251654.515463
-2775149.916361
-4682204.488305
3051762.559307
-3046359.639674
-27912189.268655
-1251654.515463
-2775149.916361
-4682204.488305
3051762.559307
-3046359.639674
-27912189.268655
-1251654.515463
-2775149.916361
-4682204.488305
3051762.559307
-3046359.639674
-27912189.268655
-1251654.515463
-2775149.916361
-4682204.488305
951741.928993
-5132566.373904
-24554777.559676
1969805.667189
-3816678.329235
-6701231.306038
951741.928993
-5132566.373904
-24554777.559676
1969805.667189
-3816678.329235
-6701231.306038
951741.928993
-5132566.373904
-24554777.559676
1969805.667189
-3816678.329235
-6701231.306038
951741.928993
-5132566.373904
-24554777.559676
1969805.667189
-3816678.329235
-6701231.306038
20385180.648920
-14343693.211358
-98827448.656137
3212023.609113
-19013202.938469
-564641.789462
20385180.648920
-14343693.211358
-98827448.656137
3212023.609113
-19013202.938469
-564641.789462
20385180.648920
-14343693.211358
-98827448.656137
3212023.609113
-19013202.938469
-564641.789462
20385180.648920
-14343693.211358
-98827448.656137
3212023.609113
-19013202.938469
-564641.789462
4176467.647399
-29042756.141787
-120347492.214549
-6074949.884786
-11063208.794531
9310957.256957
4176467.647399
-29042756.141787
-120347492.214549
-6074949.884786
-11063208.794531
9310957.256957
4176467.647399
-29042756.141787
-120347492.214549
-6074949.884786
-11063208.794531
9310957.256957
4176467.647399
-29042756.141787
-120347492.214549
-6074949.884786
-11063208.794531
9310957.256957
13146539.458755
15425034.180278
48726142.116326
7038005.688726
11300476.553038
9286959.215550
13146539.458755
15425034.180278
48726142.116326
7038005.688726
11300476.553038
9286959.215550
13146539.458755
15425034.180278
48726142.116326
7038005.688726
11300476.553038
9286959.215550
13146539.458755
15425034.180278
48726142.116326
7038005.688726
11300476.553038
9286959.215550
-29313538.960527
-38249030.036866
-110797779.794045
12376679.857850
29950387.692396
-43984862.456472
-29313538.960527
-38249030.036866
-110797779.794045
12376679.857850
29950387.692396
-43984862.456472
-29313538.960527
-38249030.036866
-110797779.794045
12376679.857850
29950387.692396
-43984862.456472
-29313538.960527
-38249030.036866
-110797779.794045
12376679.857850
29950387.692396
-43984862.456472
31512986.893754
30616295.413025
100941170.162898
12626031.812642
50367636.846127
30843114.646683
31512986.893754
30616295.413025
100941170.162898
12626031.812642
50367636.846127
30843114.646683
31512986.893754
30616295.413025
100941170.162898
12626031.812642
50367636.846127
30843114.646683
31512986.893754
30616295.413025
100941170.162898
12626031.812642
50367636.846127
30843114.646683
-10728953.434654
-12227207.170755
-42067377.215452
5055198.672105
21516557.971211
-22607642.997993
-10728953.434654
-12227207.170755
-42067377.215452
5055198.672105
21516557.971211
-22607642.997993
-10728953.434654
-12227207.170755
-42067377.215452
5055198.672105
21516557.971211
-22607642.997993
-10728953.434654
-12227207.170755
-42067377.215452
5055198.672105
21516557.971211
-22607642.997993
-1480988.782564
-1359864.452040
-6847034.029465
127297.451859
-1097400.418492
-10421847.897389
-1480988.782564
-1359864.452040
-6847034.029465
127297.451859
-1097400.418492
-10421847.897389
-1480988.782564
-1359864.452040
-6847034.029465
127297.451859
-1097400.418492
-10421847.897389
-1480988.782564
-1359864.452040
-6847034.029465
127297.451859
-1097400.418492
-10421847.897389
-4992277.249353
-6008751.001400
-16243301.347267
2404144.057212
2005289.757892
-13204660.415033
-4992277.249353
-6008751.001400
-16243301.347267
2404144.057212
2005289.757892
-13204660.415033
-4992277.249353
-6008751.001400
-16243301.347267
2404144.057212
2005289.757892
-13204660.415033
-4992277.249353
-6008751.001400
-16243301.347267
2404144.057212
2005289.757892
-13204660.415033
-348165.143352
4806972.497358
16687490.128920
-185913.782884
-1480214.149842
-6393226.415556
-348165.143352
4806972.497358
16687490.128920
-185913.782884
-1480214.149842
-6393226.415556
-348165.143352
4806972.497358
16687490.128920
-185913.782884
-1480214.149842
-6393226.415556
-348165.143352
4806972.497358
16687490.128920
-185913.782884
-1480214.149842
-6393226.415556
5379412.156343
4415358.352918
18021480.917732
1148077.005930
4098095.297411
-814916.968304
5379412.156343
4415358.352918
18021480.917732
1148077.005930
4098095.297411
-814916.968304
5379412.156343
4415358.352918
18021480.917732
1148077.005930
4098095.297411
-814916.968304
5379412.156343
4415358.352918
18021480.917732
1148077.005930
4098095.297411
-814916.968304
-99742.872325
3748634.292505
14997044.655225
1241292.081760
-2385380.499846
-5183310.019706
-99742.872325
3748634.292505
14997044.655225
1241292.081760
-2385380.499846
-5183310.019706
-99742.872325
3748634.292505
14997044.655225
1241292.081760
-2385380.499846
-5183310.019706
-99742.872325
3748634.292505
14997044.655225
1241292.081760
-2385380.499846
-5183310.019706
-1648434.235671
-1445149.029191
-4229397.268211
448272.855552
-1416134.778929
-1670233.152096
-1648434.235671
-1445149.029191
-4229397.268211
448272.855552
-1416134.778929
-1670233.152096
-1648434.235671
-1445149.029191
-4229397.268211
448272.855552
-1416134.778929
-1670233.152096
-1648434.235671
-1445149.029191
-4229397.268211
448272.855552
-1416134.778929
-1670233.152096
3348841.803284
8731105.283631
14282651.260195
1460922.008201
-4848827.927812
6890173.292150
3348841.803284
8731105.283631
14282651.260195
1460922.008201
-4848827.927812
6890173.292150
3348841.803284
8731105.283631
14282651.260195
1460922.008201
-4848827.927812
6890173.292150
3348841.803284
8731105.283631
14282651.260195
1460922.008201
-4848827.927812
6890173.292150
203449.343317
-10696484.749844
-60282316.413735
-278578.758858
-6974884.420884
-5715794.801200
203449.343317
-10696484.749844
-60282316.413735
-278578.758858
-6974884.420884
-5715794.801200
203449.343317
-10696484.749844
-60282316.413735
-278578.758858
-6974884.420884
-5715794.801200
203449.343317
-10696484.749844
-60282316.413735
-278578.758858
-6974884.420884
-5715794.801200
-22080812.841228
-15186478.922173
-63518383.112050
-3590629.435297
15651784.369477
13064291.723092
-22080812.841228
-15186478.922173
-63518383.112050
-3590629.435297
15651784.369477
13064291.723092
-22080812.841228
-15186478.922173
-63518383.112050
-3590629.435297
15651784.369477
13064291.723092
-22080812.841228
-15186478.922173
-63518383.112050
-3590629.435297
15651784.369477
13064291.723092
3364708.245994
-12217498.869881
-56414757.827172
3512995.849581
-7281597.107902
-9869089.754287
3364708.245994
-12217498.869881
-56414757.827172
3512995.849581
-7281597.107902
-9869089.754287
3364708.245994
-12217498.869881
-56414757.827172
3512995.849581
-7281597.107902
-9869089.754287
3364708.245994
-12217498.869881
-56414757.827172
3512995.849581
-7281597.107902
-9869089.754287
15500512.511935
23308287.017752
64875157.558732
-8803025.470947
8118479.616333
-33144495.133885
15500512.511935
23308287.017752
64875157.558732
-8803025.470947
8118479.616333
-33144495.133885
15500512.511935
23308287.017752
64875157.558732
-8803025.470947
8118479.616333
-33144495.133885
15500512.511935
23308287.017752
64875157.558732
-8803025.470947
8118479.616333
-33144495.133885
1186350.696053
7258640.422132
23668156.890823
781997.560176
-3943710.309742
-21429466.984736
1186350.696053
7258640.422132
23668156.890823
781997.560176
-3943710.309742
-21429466.984736
1186350.696053
7258640.422132
23668156.890823
781997.560176
-3943710.309742
-21429466.984736
1186350.696053
7258640.422132
23668156.890823
781997.560176
-3943710.309742
-21429466.984736
-8118826.844659
-20378945.408036
-75000088.901256
-384003.922208
-11634454.173399
-5070369.511650
-8118826.844659
-20378945.408036
-75000088.901256
-384003.922208
-11634454.173399
-5070369.511650
-8118826.844659
-20378945.408036
-75000088.901256
-384003.922208
-11634454.173399
-5070369.511650
-8118826.844659
-20378945.408036
-75000088.901256
-384003.922208
-11634454.173399
-5070369.511650
-2890498.743948
4036393.410920
17432938.273858
2039734.843674
-8692793.243951
11307207.830348
-2890498.743948
4036393.410920
17432938.273858
2039734.843674
-8692793.243951
11307207.830348
-2890498.743948
4036393.410920
17432938.273858
2039734.843674
-8692793.243951
11307207.830348
-2890498.743948
4036393.410920
17432938.273858
2039734.843674
-8692793.243951
11307207.830348
-6602295.427177
-19965239.587610
-78536806.567053
-2820840.400279
-10217463.730509
-26593830.967609
-6602295.427177
-19965239.587610
-78536806.567053
-2820840.400279
-10217463.730509
-26593830.967609
-6602295.427177
-19965239.587610
-78536806.567053
-2820840.400279
-10217463.730509
-26593830.967609
-6602295.427177
-19965239.587610
-78536806.567053
-2820840.400279
-10217463.730509
-26593830.967609
-33076160.455860
-15287481.788441
-83985833.374432
-10687811.431105
47923346.280558
23414066.765152
-33076160.455860
-15287481.788441
-83985833.374432
-10687811.431105
47923346.280558
23414066.765152
-33076160.455860
-15287481.788441
-83985833.374432
-10687811.431105
47923346.280558
23414066.765152
-33076160.455860
-15287481.788441
-83985833.374432
-10687811.431105
47923346.280558
23414066.765152
5479072.634127
-9386643.616772
-32369451.818941
-366081.040190
-26430574.718494
-9231755.129518
5479072.634127
-9386643.616772
-32369451.818941
-366081.040190
-26430574.718494
-9231755.129518
5479072.634127
-9386643.616772
-32369451.818941
-366081.040190
-26430574.718494
-9231755.129518
5479072.634127
-9386643.616772
-32369451.818941
-366081.040190
-26430574.718494
-9231755.129518
-17755560.887374
-8290646.463108
-29700270.425818
-6508303.171583
3083178.567213
21665984.775179
-17755560.887374
-8290646.463108
-29700270.425818
-6508303.171583
3083178.567213
21665984.775179
-17755560.887374
-8290646.463108
-29700270.425818
-6508303.171583
3083178.567213
21665984.775179
-17755560.887374
-8290646.463108
-29700270.425818
-6508303.171583
3083178.567213
21665984.775179
10176120.879824
6979501.653319
31442038.514723
3327201.531472
8926305.448549
4375977.106787
10176120.879824
6979501.653319
31442038.514723
3327201.531472
8926305.448549
4375977.106787
10176120.879824
6979501.653319
31442038.514723
3327201.531472
8926305.448549
4375977.106787
10176120.879824
6979501.653319
31442038.514723
3327201.531472
8926305.448549
4375977.106787
777900.256736
4294835.350588
28421316.783269
-64628.465399
-3376526.423451
-6696571.578012
777900.256736
4294835.350588
28421316.783269
-64628.465399
-3376526.423451
-6696571.578012
777900.256736
4294835.350588
28421316.783269
-64628.465399
-3376526.423451
-6696571.578012
777900.256736
4294835.350588
28421316.783269
-64628.465399
-3376526.423451
-6696571.578012
-1257844.328527
-1136719.998002
-6177600.667349
127297.451859
-3836156.982633
1442731.700487
-1257844.328527
-1136719.998002
-6177600.667349
127297.451859
-3836156.982633
1442731.700487
-1257844.328527
-1136719.998002
-6177600.667349
127297.451859
-3836156.982633
1442731.700487
-1257844.328527
-1136719.998002
-6177600.667349
127297.451859
-3836156.982633
1442731.700487
453503.216650
6952126.438804
24466437.534703
278522.394784
-3990182.387464
-6382016.622845
453503.216650
6952126.438804
24466437.534703
278522.394784
-3990182.387464
-6382016.622845
453503.216650
6952126.438804
24466437.534703
278522.394784
-3990182.387464
-6382016.622845
453503.216650
6952126.438804
24466437.534703
278522.394784
-3990182.387464
-6382016.622845
-1585701.570386
-960430.094500
-4463185.541765
-170434.009576
1342631.803049
-7528840.793058
-1585701.570386
-960430.094500
-4463185.541765
-170434.009576
1342631.803049
-7528840.793058
-1585701.570386
-960430.094500
-4463185.541765
-170434.009576
1342631.803049
-7528840.793058
-1585701.570386
-960430.094500
-4463185.541765
-170434.009576
1342631.803049
-7528840.793058
-821154.027487
-141989.177821
-4067438.426869
-571224.092060
-1743036.876043
-4100320.038513
-821154.027487
-141989.177821
-4067438.426869
-571224.092060
-1743036.876043
-4100320.038513
-821154.027487
-141989.177821
-4067438.426869
-571224.092060
-1743036.876043
-4100320.038513
-821154.027487
-141989.177821
-4067438.426869
-571224.092060
-1743036.876043
-4100320.038513
-3204543.460736
1891561.595826
8563623.109887
83360.141720
1575276.441736
-4028072.690115
-3204543.460736
1891561.595826
8563623.109887
83360.141720
1575276.441736
-4028072.690115
-3204543.460736
1891561.595826
8563623.109887
83360.141720
1575276.441736
-4028072.690115
-3204543.460736
1891561.595826
8563623.109887
83360.141720
1575276.441736
-4028072.690115
-6136007.251498
-617208.393154
-653462.064186
-82600.050883
-1295131.504966
-4197106.219617
-6136007.251498
-617208.393154
-653462.064186
-82600.050883
-1295131.504966
-4197106.219617
-6136007.251498
-617208.393154
-653462.064186
-82600.050883
-1295131.504966
-4197106.219617
-6136007.251498
-617208.393154
-653462.064186
-82600.050883
-1295131.504966
-4197106.219617
-119016.240224
6807875.914644
25747385.785030
2039734.843674
-5854587.321610
-23257323.510595
-119016.240224
6807875.914644
25747385.785030
2039734.843674
-5854587.321610
-23257323.510595
-119016.240224
6807875.914644
25747385.785030
2039734.843674
-5854587.321610
-23257323.510595
-119016.240224
6807875.914644
25747385.785030
2039734.843674
-5854587.321610
-23257323.510595
17510926.231906
25884249.533148
77190782.055046
-10689209.407787
8862119.377031
-38814922.040214
17510926.231906
25884249.533148
77190782.055046
-10689209.407787
8862119.377031
-38814922.040214
17510926.231906
25884249.533148
77190782.055046
-10689209.407787
8862119.377031
-38814922.040214
17510926.231906
25884249.533148
77190782.055046
-10689209.407787
8862119.377031
-38814922.040214
4404861.152572
-15153625.015256
-66622495.327364
4861068.268809
-9302883.730121
-10639404.229261
4404861.152572
-15153625.015256
-66622495.327364
4861068.268809
-9302883.730121
-10639404.229261
4404861.152572
-15153625.015256
-66622495.327364
4861068.268809
-9302883.730121
-10639404.229261
4404861.152572
-15153625.015256
-66622495.327364
4861068.268809
-9302883.730121
-10639404.229261
-31363494.785962
-21997125.245539
-77275459.369568
-5791895.773395
18741961.093512
17405440.594371
-31363494.785962
-21997125.245539
-77275459.369568
-5791895.773395
18741961.093512
17405440.594371
-31363494.785962
-21997125.245539
-77275459.369568
-5791895.773395
18741961.093512
17405440.594371
-31363494.785962
-21997125.245539
-77275459.369568
-5791895.773395
18741961.093512
17405440.594371
-751147.940040
-16802348.802993
-70638301.373587
-1058311.346087
-8529084.162458
-4901747.524227
-751147.940040
-16802348.802993
-70638301.373587
-1058311.346087
-8529084.162458
-4901747.524227
-751147.940040
-16802348.802993
-70638301.373587
-1058311.346087
-8529084.162458
-4901747.524227
-751147.940040
-16802348.802993
-70638301.373587
-1058311.346087
-8529084.162458
-4901747.524227
32032.361933
6104322.088012
20205201.888463
781997.560176
-6279817.721461
9370682.075533
32032.361933
6104322.088012
20205201.888463
781997.560176
-6279817.721461
9370682.075533
32032.361933
6104322.088012
20205201.888463
781997.560176
-6279817.721461
9370682.075533
32032.361933
6104322.088012
20205201.888463
781997.560176
-6279817.721461
9370682.075533
-3086332.216725
21604180.278795
114357286.528494
4403015.227376
-14749876.721799
1524884.486586
-3086332.216725
21604180.278795
114357286.528494
4403015.227376
-14749876.721799
1524884.486586
-3086332.216725
21604180.278795
114357286.528494
4403015.227376
-14749876.721799
1524884.486586
-3086332.216725
21604180.278795
114357286.528494
4403015.227376
-14749876.721799
1524884.486586
40306799.183739
33138137.940837
128089058.794120
-11086501.053699
40993790.686925
-48644416.181266
40306799.183739
33138137.940837
128089058.794120
-11086501.053699
40993790.686925
-48644416.181266
40306799.183739
33138137.940837
128089058.794120
-11086501.053699
40993790.686925
-48644416.181266
40306799.183739
33138137.940837
128089058.794120
-11086501.053699
40993790.686925
-48644416.181266
-3636393.592723
26024965.542115
107736255.761181
-989016.571613
-15783009.861896
-3417811.329175
-3636393.592723
26024965.542115
107736255.761181
-989016.571613
-15783009.861896
-3417811.329175
-3636393.592723
26024965.542115
107736255.761181
-989016.571613
-15783009.861896
-3417811.329175
-3636393.592723
26024965.542115
107736255.761181
-989016.571613
-15783009.861896
-3417811.329175
-10242716.682011
-10242716.682011
-30728150.046034
0.000000
-14775678.168582
-38481790.215333
-10242716.682011
-10242716.682011
-30728150.046034
0.000000
-14775678.168582
-38481790.215333
-10242716.682011
-10242716.682011
-30728150.046034
0.000000
-14775678.168582
-38481790.215333
-10242716.682011
-10242716.682011
-30728150.046034
0.000000
-14775678.168582
-38481790.215333
-2598017.828246
-7682513.117368
-14088328.843202
-175026.492117
-5434808.072060
5109525.979769
-2598017.828246
-7682513.117368
-14088328.843202
-175026.492117
-5434808.072060
5109525.979769
-2598017.828246
-7682513.117368
-14088328.843202
-175026.492117
-5434808.072060
5109525.979769
-2598017.828246
-7682513.117368
-14088328.843202
-175026.492117
-5434808.072060
5109525.979769
1726395.757165
10036563.422631
52463563.731384
1241800.519410
-7166485.530587
-6681907.764260
1726395.757165
10036563.422631
52463563.731384
1241800.519410
-7166485.530587
-6681907.764260
1726395.757165
10036563.422631
52463563.731384
1241800.519410
-7166485.530587
-6681907.764260
1726395.757165
10036563.422631
52463563.731384
1241800.519410
-7166485.530587
-6681907.764260
16403969.661111
8679154.845874
45557953.150982
4710308.799549
9578874.717056
11080491.336227
16403969.661111
8679154.845874
45557953.150982
4710308.799549
9578874.717056
11080491.336227
16403969.661111
8679154.845874
45557953.150982
4710308.799549
9578874.717056
11080491.336227
16403969.661111
8679154.845874
45557953.150982
4710308.799549
9578874.717056
11080491.336227
-4050971.528716
5724972.923089
39705672.372829
-1141971.978605
-11514802.960323
-10013186.341152
-4050971.528716
5724972.923089
39705672.372829
-1141971.978605
-11514802.960323
-10013186.341152
-4050971.528716
5724972.923089
39705672.372829
-1141971.978605
-11514802.960323
-10013186.341152
-4050971.528716
5724972.923089
39705672.372829
-1141971.978605
-11514802.960323
-10013186.341152
-12565636.237618
-18993795.186574
-47374899.224245
9312756.527534
5096116.999784
-22859495.086405
-12565636.237618
-18993795.186574
-47374899.224245
9312756.527534
5096116.999784
-22859495.086405
-12565636.237618
-18993795.186574
-47374899.224245
9312756.527534
5096116.999784
-22859495.086405
-12565636.237618
-18993795.186574
-47374899.224245
9312756.527534
5096116.999784
-22859495.086405
3040547.195578
-2731644.526843
-1212316.151191
1893241.851378
-7805097.168136
-13791199.371138
3040547.195578
-2731644.526843
-1212316.151191
1893241.851378
-7805097.168136
-13791199.371138
3040547.195578
-2731644.526843
-1212316.151191
1893241.851378
-7805097.168136
-13791199.371138
3040547.195578
-2731644.526843
-1212316.151191
1893241.851378
-7805097.168136
-13791199.371138
-9203829.471273
-11506454.894839
-41982698.297060
-3467062.900677
6516344.199274
9825934.567126
-9203829.471273
-11506454.894839
-41982698.297060
-3467062.900677
6516344.199274
9825934.567126
-9203829.471273
-11506454.894839
-41982698.297060
-3467062.900677
6516344.199274
9825934.567126
-9203829.471273
-11506454.894839
-41982698.297060
-3467062.900677
6516344.199274
9825934.567126
5374742.128883
-5223511.868508
-36767319.640438
1339465.240419
-7546627.020898
-5799589.010843
5374742.128883
-5223511.868508
-36767319.640438
1339465.240419
-7546627.020898
-5799589.010843
5374742.128883
-5223511.868508
-36767319.640438
1339465.240419
-7546627.020898
-5799589.010843
5374742.128883
-5223511.868508
-36767319.640438
1339465.240419
-7546627.020898
-5799589.010843
11207577.641167
14309710.646534
40870556.755995
-4669814.151718
7618866.179390
-18808024.220052
11207577.641167
14309710.646534
40870556.755995
-4669814.151718
7618866.179390
-18808024.220052
11207577.641167
14309710.646534
40870556.755995
-4669814.151718
7618866.179390
-18808024.220052
11207577.641167
14309710.646534
40870556.755995
-4669814.151718
7618866.179390
-18808024.220052
-2582036.787062
1587660.588015
-1565850.898400
-456377.327128
-5900438.000654
-14516560.787615
-2582036.787062
1587660.588015
-1565850.898400
-456377.327128
-5900438.000654
-14516560.787615
-2582036.787062
1587660.588015
-1565850.898400
-456377.327128
-5900438.000654
-14516560.787615
-2582036.787062
1587660.588015
-1565850.898400
-456377.327128
-5900438.000654
-14516560.787615
